
Gurobi 9.5.0 (win64) logging started Mon Jun  6 19:28:43 2022

Set parameter LogFile to value "../results/logs/log_soc-dolphins_3_1_2022_06_06_19_28.log"
Set parameter LazyConstraints to value 1
Gurobi Optimizer version 9.5.0 build v9.5.0rc5 (win64)
Thread count: 6 physical cores, 12 logical processors, using up to 12 threads
Optimize a model with 5324 rows, 186 columns and 16540 nonzeros
Model fingerprint: 0x8aba2a34
Variable types: 0 continuous, 186 integer (186 binary)
Coefficient statistics:
  Matrix range     [1e+00, 3e+00]
  Objective range  [1e+00, 1e+00]
  Bounds range     [1e+00, 1e+00]
  RHS range        [1e+00, 1e+00]
Found heuristic solution: objective -0.0000000
Presolve removed 5134 rows and 15 columns
Presolve time: 0.05s
Presolved: 190 rows, 171 columns, 4170 nonzeros
Variable types: 0 continuous, 171 integer (171 binary)

Root relaxation: objective 3.400000e+01, 56 iterations, 0.00 seconds (0.00 work units)

    Nodes    |    Current Node    |     Objective Bounds      |     Work
 Expl Unexpl |  Obj  Depth IntInf | Incumbent    BestBd   Gap | It/Node Time

     0     0   34.00000    0    2   -0.00000   34.00000      -     -    0s
H    0     0                       5.0000000   34.00000   580%     -    0s
     0     0   31.13333    0   14    5.00000   31.13333   523%     -    0s
     0     0   28.50000    0   12    5.00000   28.50000   470%     -    0s
     0     0   24.88889    0   20    5.00000   24.88889   398%     -    0s
     0     0   24.69231    0   41    5.00000   24.69231   394%     -    0s
     0     0   24.69231    0   41    5.00000   24.69231   394%     -    0s
     0     0   23.03125    0   37    5.00000   23.03125   361%     -    0s
     0     0   22.00000    0    6    5.00000   22.00000   340%     -    0s
H    0     0                      21.0000000   22.00000  4.76%     -    0s
H    0     0                      22.0000000   22.00000  0.00%     -    0s

Cutting planes:
  Gomory: 1
  Cover: 2
  Clique: 20
  MIR: 4
  StrongCG: 3
  GUB cover: 2
  Zero half: 2
  RLT: 2
  Lazy constraints: 524

Explored 1 nodes (207 simplex iterations) in 0.27 seconds (0.13 work units)
Thread count was 12 (of 12 available processors)

Solution count 4: 22 21 5 -0 

Optimal solution found (tolerance 0.00e+00)
Best objective 2.200000000000e+01, best bound 2.200000000000e+01, gap 0.0000%

User-callback calls 332, time in user-callback 0.07 sec

Gurobi 9.5.0 (win64) logging started Mon Jun  6 19:28:49 2022

Set parameter LogFile to value "../results/logs/log_soc-dolphins_3_1_2022_06_06_19_28.log"
Gurobi Optimizer version 9.5.0 build v9.5.0rc5 (win64)
Thread count: 6 physical cores, 12 logical processors, using up to 12 threads
Optimize a model with 8966 rows, 19902 columns and 73218 nonzeros
Model fingerprint: 0xe9e25061
Variable types: 19716 continuous, 186 integer (186 binary)
Coefficient statistics:
  Matrix range     [1e+00, 3e+00]
  Objective range  [1e+00, 1e+00]
  Bounds range     [1e+00, 1e+00]
  RHS range        [1e+00, 1e+00]
Presolve removed 4336 rows and 11337 columns
Presolve time: 0.39s
Presolved: 4630 rows, 8565 columns, 48321 nonzeros
Variable types: 8395 continuous, 170 integer (170 binary)
Found heuristic solution: objective 8.0000000
Found heuristic solution: objective 30.0000000

Root relaxation: objective 3.400000e+01, 220 iterations, 0.01 seconds (0.01 work units)

    Nodes    |    Current Node    |     Objective Bounds      |     Work
 Expl Unexpl |  Obj  Depth IntInf | Incumbent    BestBd   Gap | It/Node Time

     0     0   33.66667    0    2   30.00000   33.66667  12.2%     -    0s
H    0     0                      33.0000000   33.66667  2.02%     -    0s
     0     0   33.66667    0    2   33.00000   33.66667  2.02%     -    0s

Explored 1 nodes (222 simplex iterations) in 0.51 seconds (0.31 work units)
Thread count was 12 (of 12 available processors)

Solution count 3: 33 30 8 

Optimal solution found (tolerance 0.00e+00)
Best objective 3.300000000000e+01, best bound 3.300000000000e+01, gap 0.0000%

Gurobi 9.5.0 (win64) logging started Mon Jun  6 19:28:56 2022

Set parameter LogFile to value "../results/logs/log_soc-dolphins_3_1_2022_06_06_19_28.log"
Set parameter LazyConstraints to value 1
Gurobi Optimizer version 9.5.0 build v9.5.0rc5 (win64)
Thread count: 6 physical cores, 12 logical processors, using up to 12 threads
Optimize a model with 5324 rows, 186 columns and 16540 nonzeros
Model fingerprint: 0xbd27725f
Variable types: 0 continuous, 186 integer (186 binary)
Coefficient statistics:
  Matrix range     [1e+00, 3e+00]
  Objective range  [1e+00, 1e+00]
  Bounds range     [1e+00, 1e+00]
  RHS range        [1e+00, 1e+00]
Found heuristic solution: objective -0.0000000
Presolve removed 5130 rows and 15 columns
Presolve time: 0.05s
Presolved: 194 rows, 171 columns, 4352 nonzeros
Variable types: 0 continuous, 171 integer (171 binary)

Root relaxation: objective 3.400000e+01, 60 iterations, 0.00 seconds (0.00 work units)

    Nodes    |    Current Node    |     Objective Bounds      |     Work
 Expl Unexpl |  Obj  Depth IntInf | Incumbent    BestBd   Gap | It/Node Time

     0     0   34.00000    0    2   -0.00000   34.00000      -     -    0s
     0     0   31.13333    0   14   -0.00000   31.13333      -     -    0s
H    0     0                       5.0000000   31.13333   523%     -    0s
     0     0   29.75000    0    4    5.00000   29.75000   495%     -    0s
H    0     0                      20.0000000   29.75000  48.8%     -    0s
     0     0   28.00000    0   14   20.00000   28.00000  40.0%     -    0s
     0     0   24.88889    0   22   20.00000   24.88889  24.4%     -    0s
H    0     0                      22.0000000   24.88889  13.1%     -    0s
     0     0   23.22222    0   19   22.00000   23.22222  5.56%     -    0s
     0     0   23.22222    0   20   22.00000   23.22222  5.56%     -    0s
     0     0     cutoff    0        22.00000   22.00000  0.00%     -    0s

Cutting planes:
  Cover: 2
  Clique: 13
  MIR: 5
  StrongCG: 1
  GUB cover: 1
  Zero half: 2
  RLT: 3
  Lazy constraints: 444

Explored 1 nodes (181 simplex iterations) in 0.20 seconds (0.08 work units)
Thread count was 12 (of 12 available processors)

Solution count 4: 22 20 5 -0 

Optimal solution found (tolerance 0.00e+00)
Best objective 2.200000000000e+01, best bound 2.200000000000e+01, gap 0.0000%

User-callback calls 310, time in user-callback 0.06 sec

Gurobi 9.5.0 (win64) logging started Mon Jun  6 19:28:57 2022

Set parameter LogFile to value "../results/logs/log_soc-dolphins_3_1_2022_06_06_19_28.log"
Gurobi Optimizer version 9.5.0 build v9.5.0rc5 (win64)
Thread count: 6 physical cores, 12 logical processors, using up to 12 threads
Optimize a model with 8966 rows, 19902 columns and 73218 nonzeros
Model fingerprint: 0xe9e25061
Variable types: 19716 continuous, 186 integer (186 binary)
Coefficient statistics:
  Matrix range     [1e+00, 3e+00]
  Objective range  [1e+00, 1e+00]
  Bounds range     [1e+00, 1e+00]
  RHS range        [1e+00, 1e+00]
Presolve removed 4336 rows and 11337 columns
Presolve time: 0.36s
Presolved: 4630 rows, 8565 columns, 48321 nonzeros
Variable types: 8395 continuous, 170 integer (170 binary)
Found heuristic solution: objective 8.0000000
Found heuristic solution: objective 30.0000000

Root relaxation: objective 3.400000e+01, 220 iterations, 0.01 seconds (0.01 work units)

    Nodes    |    Current Node    |     Objective Bounds      |     Work
 Expl Unexpl |  Obj  Depth IntInf | Incumbent    BestBd   Gap | It/Node Time

     0     0   33.66667    0    2   30.00000   33.66667  12.2%     -    0s
H    0     0                      33.0000000   33.66667  2.02%     -    0s
     0     0   33.66667    0    2   33.00000   33.66667  2.02%     -    0s

Explored 1 nodes (222 simplex iterations) in 0.48 seconds (0.31 work units)
Thread count was 12 (of 12 available processors)

Solution count 3: 33 30 8 

Optimal solution found (tolerance 0.00e+00)
Best objective 3.300000000000e+01, best bound 3.300000000000e+01, gap 0.0000%
